Instance name: /mnt/c/Users/ORG/CLionProjects/uMV-FSTSP/Murray_Chu_2015_test_data/FSTSP/FSTSP_10_customer_problems/20140810T123443v5

drone speed: 0.4 miles/minute
uav non-eligible customer: 4 8 
Printing number of nodes: 11

Gurobi Optimizer version 11.0.0 build v11.0.0rc2 (linux64 - "Ubuntu 22.04.3 LTS")

CPU model: 13th Gen Intel(R) Core(TM) i5-13500, instruction set [SSE2|AVX|AVX2]
Thread count: 10 physical cores, 20 logical processors, using up to 20 threads

Optimize a model with 44651 rows, 1957 columns and 1837624 nonzeros
Model fingerprint: 0xfb13a172
Variable types: 11 continuous, 1946 integer (1814 binary)
Coefficient statistics:
  Matrix range     [7e-01, 3e+01]
  Objective range  [1e+00, 3e+01]
  Bounds range     [1e+00, 1e+00]
  RHS range        [1e+00, 9e+00]
Found heuristic solution: objective 167.7410708
Presolve removed 29517 rows and 988 columns
Presolve time: 3.34s
Presolved: 15134 rows, 969 columns, 482855 nonzeros
Variable types: 8 continuous, 961 integer (961 binary)
Found heuristic solution: objective 148.7227818
Root relaxation presolved: 15134 rows, 969 columns, 482855 nonzeros


Root relaxation: objective 4.421624e+01, 3079 iterations, 1.48 seconds (2.39 work units)

    Nodes    |    Current Node    |     Objective Bounds      |     Work
 Expl Unexpl |  Obj  Depth IntInf | Incumbent    BestBd   Gap | It/Node Time

     0     0   44.21624    0   88  148.72278   44.21624  70.3%     -    5s
H    0     0                     108.8603605   44.21624  59.4%     -    5s
H    0     0                      68.2313139   44.21624  35.2%     -    5s
     0     0   45.16675    0  151   68.23131   45.16675  33.8%     -    5s
H    0     0                      67.7767106   45.62297  32.7%     -    6s
H    0     0                      66.3558426   46.29071  30.2%     -    6s
     0     0   46.29071    0  133   66.35584   46.29071  30.2%     -    6s
H    0     0                      62.9906252   46.29540  26.5%     -    7s
     0     0   46.32334    0  159   62.99063   46.32334  26.5%     -    7s
     0     0   46.32825    0  162   62.99063   46.32825  26.5%     -    7s
     0     0   47.24662    0  183   62.99063   47.24662  25.0%     -    7s
H    0     0                      61.8980106   47.45178  23.3%     -    8s
     0     0   47.45178    0  166   61.89801   47.45178  23.3%     -    8s
     0     0   47.45178    0  166   61.89801   47.45178  23.3%     -    8s
     0     0   48.12513    0  149   61.89801   48.12513  22.3%     -    8s
H    0     0                      59.0691150   48.42773  18.0%     -    8s
     0     0   48.42773    0  205   59.06912   48.42773  18.0%     -    8s
     0     0   48.42773    0  197   59.06912   48.42773  18.0%     -    8s
     0     0   49.09767    0  150   59.06912   49.09767  16.9%     -    9s
     0     0   49.22820    0  151   59.06912   49.22820  16.7%     -    9s
     0     0   49.34889    0  150   59.06912   49.34889  16.5%     -    9s
     0     0   49.49379    0  148   59.06912   49.49379  16.2%     -    9s
     0     0   49.49379    0  151   59.06912   49.49379  16.2%     -    9s
     0     0   50.31012    0  151   59.06912   50.31012  14.8%     -    9s
     0     0   50.45662    0  154   59.06912   50.45662  14.6%     -    9s
     0     0   50.61311    0  151   59.06912   50.61311  14.3%     -    9s
     0     0   50.61311    0  159   59.06912   50.61311  14.3%     -   10s
H    0     0                      59.0496771   50.61311  14.3%     -   10s
     0     0   50.78296    0  143   59.04968   50.78296  14.0%     -   10s
     0     0   50.80977    0  148   59.04968   50.80977  14.0%     -   10s
     0     0   50.80977    0  136   59.04968   50.80977  14.0%     -   10s
     0     0   50.94181    0  150   59.04968   50.94181  13.7%     -   10s
     0     0   50.94181    0  150   59.04968   50.94181  13.7%     -   10s
H    0     0                      58.6394847   50.94181  13.1%     -   11s
     0     2   50.94181    0  150   58.63948   50.94181  13.1%     -   11s
    35    40   54.08339    6  100   58.63948   51.63054  12.0%   178   15s
H   80    56                      58.0691150   51.63054  11.1%   131   17s
   163    80     cutoff   12        58.06912   51.63054  11.1%   101   20s
   455   114   56.88206    6   68   58.06912   54.03322  6.95%  65.7   25s
   969    29     cutoff   11        58.06912   56.55622  2.61%  46.6   30s

Cutting planes:
  Gomory: 1
  Cover: 4
  Clique: 4
  MIR: 6
  Zero half: 38
  RLT: 71

Explored 1121 nodes (53228 simplex iterations) in 30.51 seconds (46.59 work units)
Thread count was 20 (of 20 available processors)

Solution count 10: 58.0691 58.6395 59.0497 ... 108.86

Optimal solution found (tolerance 1.00e-04)
Best objective 5.806911501385e+01, best bound 5.806911501385e+01, gap 0.0000%
Truck arcs: 
0 4 10.8096
1 5 1.92825
4 10 10.5327
5 6 0.968346
6 10 6.24629
8 1 3.32128
9 11 7.36834
10 8 3.8851
10 9 6.76206
Theta:
Theta_2 = 1
Theta_3 = 1
Theta_7 = 1
Drone arcs:
0 7
2 1
3 9
4 3
5 2
7 4
Gamma:
gamma_2_5_6= 1
gamma_2_6_10= 1
gamma_2_8_1= 1
gamma_2_10_8= 1
gamma_3_4_10= 1
gamma_3_10_9= 1
gamma_7_0_4= 1
Sigma:
Sigma_1 = -0
Sigma_2 = 0
Sigma_3 = 1.11415
Sigma_4 = 0
Sigma_5 = 0
Sigma_6 = 0
Sigma_7 = 0.133044
Sigma_8 = 0
Sigma_9 = 0
Sigma_10 = 0
Sigma_11 = 0
middle of 2 sortie are: 6 8 10 
middle of 3 sortie are: 10 
middle of 7 sortie are: 
Objective: 58.0691
Number of sorties: 3
